c 1 SnakeFOP
c 2 Enemies
c 3 Snake
c 4 L1
c 5 Torus
c 6 L2
c 7 Highscore
c 8 L3
c 9 L4
c 10 Manual
c 11 Centipede
c 12 Slug
c 13 Entities
c 14 Bordered
c 15 Points
c 16 Fly
c 17 Mouse
c 18 Gamefield
c 19 Bug
c 20 Level
c 21 Automatic
p cnf 21 32
1 0
1 -15 0
1 -13 0
1 -18 0
1 -20 0
13 -1 0
18 -1 0
20 -1 0
2 -19 0
2 -11 0
2 -16 0
2 -17 0
2 -12 0
19 11 16 17 12 -2 0
3 -21 0
3 -10 0
21 10 -3 0
-21 -10 0
13 -3 0
13 -2 0
3 -13 0
2 -13 0
15 -7 0
18 -14 0
18 -5 0
14 5 -18 0
-14 -5 0
20 -4 0
20 -6 0
20 -8 0
20 -9 0
4 6 8 9 -20 0
